
Gurobi 13.0.1 (linux64) logging started Sat Mar 21 17:05:46 2026

Set parameter LogFile to value "logs/50B_3F_robust_gamma_0d25_theta_0d05199999999999999_2026-03-21_17h05m40s.log"
Gurobi Optimizer version 13.0.1 build v13.0.1rc0 (linux64 - "Linux Mint 22")

CPU model: 12th Gen Intel(R) Core(TM) i7-12700, instruction set [SSE2|AVX|AVX2]
Thread count: 20 physical cores, 20 logical processors, using up to 20 threads

Non-default parameters:
TimeLimit  3600
SoftMemLimit  12

Optimize a model with 30471 rows, 390571 columns and 1204034 nonzeros (Max)
Model fingerprint: 0x108ff399
Model has 367561 linear objective coefficients
Variable types: 8071 continuous, 382500 integer (382500 binary)
Coefficient statistics:
  Matrix range     [3e-05, 1e+05]
  Objective range  [1e+00, 3e+03]
  Bounds range     [1e+00, 1e+05]
  RHS range        [8e-03, 1e+05]

Presolve removed 15658 rows and 282196 columns
Presolve time: 0.67s
Presolved: 14813 rows, 108375 columns, 345908 nonzeros
Variable types: 3921 continuous, 104454 integer (104454 binary)
Found heuristic solution: objective -3.92155e+08
Deterministic concurrent LP optimizer: primal and dual simplex
Showing primal log only...

Concurrent spin time: 0.48s (can be avoided by choosing Method=3)

Solved with dual simplex

Root relaxation: objective 1.069399e+08, 10612 iterations, 2.54 seconds (3.88 work units)

    Nodes    |    Current Node    |     Objective Bounds      |     Work
 Expl Unexpl |  Obj  Depth IntInf | Incumbent    BestBd   Gap | It/Node Time

     0     0 1.0694e+08    0 4043 -3.922e+08 1.0694e+08   127%     -    3s
H    0     0                    -2.19557e+08 1.0694e+08   149%     -    4s
H    0     0                    -1.39286e+08 1.0694e+08   177%     -    4s
H    0     0                    -1.04364e+08 1.0694e+08   202%     -    5s
H    0     0                    -8.50899e+07 1.0694e+08   226%     -    5s
H    0     0                    -6.63477e+07 1.0694e+08   261%     -    5s
H    0     0                    -5.63130e+07 1.0694e+08   290%     -    6s
H    0     0                    -2.05162e+07 1.0694e+08   621%     -    8s
H    0     0                    1454877.7699 1.0694e+08  7250%     -    9s
H    0     0                    3.092712e+07 1.0694e+08   246%     -   10s
H    0     0                    3.968137e+07 1.0694e+08   169%     -   10s
H    0     0                    4.170498e+07 1.0694e+08   156%     -   15s
H    0     0                    4.808255e+07 1.0694e+08   122%     -   15s
     0     0 1.0694e+08    0 3705 4.8083e+07 1.0694e+08   122%     -   17s
H    0     0                    4.808357e+07 1.0694e+08   122%     -   22s
H    0     0                    5.097373e+07 1.0694e+08   110%     -   27s
H    0     0                    5.164482e+07 1.0694e+08   107%     -   30s
H    0     0                    5.194668e+07 1.0694e+08   106%     -   32s
H    0     0                    5.332445e+07 1.0694e+08   101%     -   34s
H    0     0                    5.332471e+07 1.0694e+08   101%     -   35s
H    0     0                    5.574916e+07 1.0694e+08  91.8%     -   35s
H    0     0                    5.628729e+07 1.0694e+08  90.0%     -   35s
H    0     0                    6.745630e+07 1.0694e+08  58.5%     -   35s
     0     0 1.0694e+08    0 3786 6.7456e+07 1.0694e+08  58.5%     -   35s
     0     0 1.0694e+08    0 4773 6.7456e+07 1.0694e+08  58.5%     -   40s
H    0     0                    6.746639e+07 1.0694e+08  58.5%     -   43s
     0     0 1.0694e+08    0 4558 6.7466e+07 1.0694e+08  58.5%     -   43s
     0     0 1.0694e+08    0 4707 6.7466e+07 1.0694e+08  58.5%     -   44s
     0     0 1.0694e+08    0 5148 6.7466e+07 1.0694e+08  58.5%     -   48s
     0     0 1.0694e+08    0 4918 6.7466e+07 1.0694e+08  58.5%     -   52s
     0     0 1.0694e+08    0 4929 6.7466e+07 1.0694e+08  58.5%     -   54s
     0     0 1.0694e+08    0 4929 6.7466e+07 1.0694e+08  58.5%     -   55s
     0     0 1.0694e+08    0 4557 6.7466e+07 1.0694e+08  58.5%     -   56s
     0     2 1.0694e+08    0 4557 6.7466e+07 1.0694e+08  58.5%     -   66s
     1     4 1.0694e+08    1 4659 6.7466e+07 1.0694e+08  58.5%   482   72s
     3     8 1.0694e+08    2 5130 6.7466e+07 1.0694e+08  58.5%  2652   77s
H    7    16                    7.195405e+07 1.0694e+08  48.6%  2951   84s
H    8    16                    7.890955e+07 1.0694e+08  35.5%  2754   84s
H   12    16                    8.136390e+07 1.0694e+08  31.4%  2633   84s
    15    32 1.0694e+08    4 5077 8.1364e+07 1.0694e+08  31.4%  2596  116s
H   31    52                    8.164516e+07 1.0694e+08  31.0%  4241  140s
H   33    52                    8.166488e+07 1.0694e+08  30.9%  4124  140s
H   44    52                    8.206281e+07 1.0694e+08  30.3%  3615  140s
H   51    72                    8.858040e+07 1.0694e+08  20.7%  3530  176s
H   52    72                    9.099248e+07 1.0694e+08  17.5%  3478  176s
H   55    72                    9.102985e+07 1.0694e+08  17.5%  3413  176s
H   56    72                    9.125381e+07 1.0694e+08  17.2%  3392  176s
H   69    72                    9.246538e+07 1.0694e+08  15.7%  3032  176s
H   71   144                    9.246686e+07 1.0694e+08  15.7%  2971  242s
H   73   144                    9.265058e+07 1.0694e+08  15.4%  3007  242s
H   99   144                    9.265058e+07 1.0694e+08  15.4%  2686  242s
H  102   144                    9.265126e+07 1.0694e+08  15.4%  2642  242s
H  118   144                    9.268238e+07 1.0694e+08  15.4%  2588  242s
   143   364 1.0694e+08    8 5092 9.2682e+07 1.0694e+08  15.4%  2448  371s
   363   619 1.0694e+08   19 5031 9.2682e+07 1.0694e+08  15.4%  2014  599s
   618   639 1.0694e+08   26 4783 9.2682e+07 1.0694e+08  15.4%  2375  831s
H  619   639                    9.274691e+07 1.0694e+08  15.3%  2371  831s
H  621   639                    9.323413e+07 1.0694e+08  14.7%  2373  831s
H  626   639                    9.323476e+07 1.0694e+08  14.7%  2367  831s
H  638   669                    9.745308e+07 1.0694e+08  9.73%  2356 1117s
H  646   669                    9.775557e+07 1.0694e+08  9.39%  2361 1117s
   668  1089 1.0694e+08   30 4914 9.7756e+07 1.0694e+08  9.39%  2386 1513s
H  688  1089                    9.776879e+07 1.0694e+08  9.38%  2372 1513s
  1088  3522 1.0694e+08   46 4217 9.7769e+07 1.0694e+08  9.38%  2096 2574s
  3521  5666 1.0694e+08   90 3765 9.7769e+07 1.0694e+08  9.38%  1633 3118s
  5672  5686 1.0693e+08  126 2886 9.7769e+07 1.0694e+08  9.38%  1386 3358s
H 5673  5686                    9.777344e+07 1.0694e+08  9.37%  1386 3358s
H 5675  5686                    9.848681e+07 1.0694e+08  8.58%  1386 3358s
  5692  7337 1.0693e+08  126 3025 9.8487e+07 1.0694e+08  8.58%  1385 3600s

Cutting planes:
  Gomory: 8
  MIR: 37
  Flow cover: 171
  RLT: 2030
  Relax-and-lift: 51

Explored 7362 nodes (9085666 simplex iterations) in 3600.10 seconds (2849.98 work units)
Thread count was 20 (of 20 available processors)

Solution count 10: 9.84868e+07 9.77734e+07 9.77688e+07 ... 9.26513e+07

Time limit reached
Best objective 9.848680505465e+07, best bound 1.069384776439e+08, gap 8.5815%
